NAME : mtsp150.5557405_55327895.tour
COMMENT : Cost = 5557405_55327895
COMMENT : Found by LKH-3 [Keld Helsgaun] Tue Mar 15 23:34:23 2022
TYPE : TOUR
DIMENSION : 159
TOUR_SECTION
1
45
98
15
141
59
84
74
63
11
114
109
91
86
60
23
77
156
28
130
92
75
19
53
124
70
94
18
16
38
10
113
132
131
155
108
3
40
93
138
42
49
134
137
24
90
6
79
153
110
20
149
115
123
128
83
71
17
146
43
12
120
9
7
35
150
158
32
21
127
104
88
26
102
99
111
36
72
47
154
73
44
116
95
33
76
13
126
82
2
144
54
64
69
157
117
34
46
41
27
52
62
136
105
57
100
14
112
135
140
51
152
148
133
89
122
31
143
119
118
129
66
4
97
139
8
80
142
58
151
48
87
29
125
106
22
78
121
30
107
55
159
145
85
39
96
5
81
67
56
65
101
103
37
147
50
68
25
61
-1
EOF
